7038.0
[[ 7.  4.  8.  0.  3.  1.  2. 10.  6.  5.  9.]
 [ 7.  4.  8.  0.  3.  1.  2. 10.  6.  5.  9.]
 [ 7.  4.  8.  0.  3.  1.  2. 10.  6.  5.  9.]
 [ 7.  4.  8.  0.  3.  1.  2. 10.  6.  5.  9.]
 [ 7.  4.  8.  0.  3.  1.  2. 10.  6.  5.  9.]]
